<number of tasks>
100

<cycle time>
1000

<order strength>
0.595


<task times>
1 379
2 507
3 891
4 573
5 431
6 337
7 601
8 494
9 615
10 575
11 441
12 443
13 239
14 445
15 522
16 488
17 533
18 238
19 572
20 437
21 495
22 580
23 462
24 390
25 438
26 595
27 627
28 577
29 348
30 333
31 715
32 728
33 530
34 479
35 674
36 344
37 594
38 499
39 274
40 524
41 427
42 677
43 626
44 636
45 357
46 459
47 671
48 579
49 592
50 579
51 660
52 698
53 332
54 283
55 552
56 370
57 420
58 534
59 543
60 554
61 491
62 751
63 232
64 559
65 548
66 413
67 608
68 678
69 610
70 428
71 588
72 464
73 423
74 276
75 500
76 341
77 560
78 735
79 513
80 446
81 534
82 604
83 469
84 612
85 539
86 419
87 555
88 478
89 460
90 589
91 226
92 451
93 418
94 441
95 504
96 556
97 358
98 470
99 545
100 599

<precedence relations>
1,31
2,72
3,72
4,87
5,48
6,12
6,13
6,46
6,47
7,9
7,10
7,14
8,9
8,11
8,14
9,31
10,31
11,31
12,87
13,48
14,15
14,16
14,17
14,18
14,19
14,20
14,21
14,22
15,31
16,31
17,31
18,72
19,69
20,48
21,48
22,23
22,24
22,25
22,26
22,27
22,28
22,29
22,30
23,31
24,31
25,31
26,31
27,69
28,87
29,31
29,33
30,31
30,32
30,33
30,34
31,35
31,36
31,37
31,38
31,39
31,40
31,41
31,42
31,43
31,44
32,72
33,42
34,44
34,46
35,47
35,61
35,63
35,66
36,45
36,46
36,47
36,61
36,68
37,46
37,49
37,59
37,60
38,45
38,48
39,45
39,57
40,45
40,46
40,49
41,47
41,72
42,48
43,69
43,79
44,45
44,47
44,48
44,49
45,72
46,72
47,87
48,50
48,51
48,52
48,53
48,54
48,55
48,56
48,57
49,50
49,61
50,87
51,58
51,59
52,59
52,63
52,64
52,68
53,58
53,61
53,68
53,70
54,59
54,65
54,67
54,71
54,79
55,60
56,61
56,66
57,61
57,66
58,87
59,87
60,62
60,63
60,64
60,66
61,64
61,65
61,79
62,72
63,69
64,69
65,69
66,67
66,68
66,70
66,71
67,72
68,72
69,73
69,74
69,75
69,76
69,77
70,72
70,79
71,78
72,80
72,81
72,82
72,83
72,84
72,85
72,86
73,96
73,97
73,98
74,97
75,87
76,88
77,88
78,87
80,96
80,99
82,100
85,95
85,96
86,94
87,89
87,90
87,91
87,92
87,93
88,95
88,96
88,97
89,97
91,98
91,100
92,94
92,95
93,94
93,96
94,97
94,98
95,98
97,99
97,100
98,99

<end>
